100
150
100
99
99
98
97
97
97
96
96
95
95
95
94
93
93
93
92
91
89
88
87
86
84
84
83
83
82
81
81
81
78
78
75
74
73
72
72
71
70
68
67
66
65
64
63
63
62
60
60
59
59
58
57
56
56
55
54
51
49
49
48
47
47
46
45
45
45
45
44
44
44
44
43
41
41
40
39
39
39
37
37
37
35
35
34
32
31
31
30
28
26
25
24
24
23
23
22
21
20
20
